
NAME : Custom-CVRP
COMMENT : Custom generated data set
TYPE : CVRP
DIMENSION : 101
EDGE_WEIGHT_TYPE : EUC_2D
CAPACITY : 10
NODE_COORD_SECTION
 1 66 8
 2 14 80
 3 10 85
 4 26 24
 5 17 44
 6 32 77
 7 40 10
 8 77 5
 9 25 97
 10 5 63
 11 49 75
 12 99 45
 13 60 82
 14 11 22
 15 29 61
 16 60 93
 17 76 24
 18 77 82
 19 34 3
 20 77 93
 21 39 41
 22 10 46
 23 99 14
 24 1 58
 25 24 77
 26 15 64
 27 49 75
 28 20 86
 29 8 1
 30 15 70
 31 78 59
 32 59 97
 33 23 55
 34 67 28
 35 22 40
 36 58 38
 37 26 99
 38 3 89
 39 6 3
 40 55 82
 41 36 26
 42 10 1
 43 80 10
 44 81 78
 45 63 90
 46 28 62
 47 7 20
 48 80 55
 49 56 24
 50 34 1
 51 49 43
 52 15 49
 53 35 62
 54 75 33
 55 81 88
 56 20 51
 57 95 73
 58 83 1
 59 64 96
 60 11 26
 61 42 53
 62 40 67
 63 1 49
 64 6 88
 65 53 54
 66 64 73
 67 31 37
 68 53 18
 69 95 89
 70 72 84
 71 36 68
 72 48 6
 73 65 26
 74 61 52
 75 5 53
 76 67 75
 77 68 35
 78 90 44
 79 91 93
 80 33 24
 81 2 11
 82 98 74
 83 50 28
 84 62 23
 85 39 54
 86 67 45
 87 51 67
 88 95 42
 89 1 30
 90 87 52
 91 52 48
 92 94 75
 93 59 59
 94 71 54
 95 83 3
 96 87 31
 97 83 36
 98 47 1
 99 24 43
 100 86 48
 101 96 14
DEMAND_SECTION
 1 0
 2 2
 3 1
 4 3
 5 1
 6 3
 7 2
 8 1
 9 3
 10 2
 11 2
 12 3
 13 1
 14 1
 15 1
 16 1
 17 2
 18 2
 19 3
 20 2
 21 3
 22 3
 23 2
 24 1
 25 1
 26 3
 27 1
 28 3
 29 3
 30 3
 31 3
 32 1
 33 3
 34 3
 35 2
 36 1
 37 3
 38 1
 39 2
 40 1
 41 2
 42 1
 43 2
 44 1
 45 3
 46 3
 47 3
 48 1
 49 3
 50 1
 51 1
 52 1
 53 1
 54 3
 55 2
 56 2
 57 2
 58 2
 59 1
 60 3
 61 2
 62 3
 63 3
 64 3
 65 1
 66 1
 67 1
 68 3
 69 3
 70 1
 71 3
 72 2
 73 1
 74 1
 75 2
 76 3
 77 2
 78 1
 79 2
 80 1
 81 1
 82 2
 83 2
 84 3
 85 3
 86 3
 87 1
 88 2
 89 3
 90 2
 91 3
 92 3
 93 3
 94 1
 95 3
 96 1
 97 3
 98 1
 99 3
 100 1
 101 3
DEPOT_SECTION
 1
 -1
EOF
